p edge 250 3075
e 1 9
e 1 10
e 1 43
e 1 46
e 1 73
e 1 82
e 1 83
e 1 85
e 1 90
e 1 98
e 1 110
e 1 123
e 1 137
e 1 138
e 1 141
e 1 147
e 1 152
e 1 178
e 1 190
e 1 193
e 1 194
e 1 198
e 1 207
e 1 216
e 1 226
e 1 228
e 1 230
e 1 232
e 1 233
e 1 234
e 1 240
e 1 249
e 2 36
e 2 64
e 2 69
e 2 70
e 2 75
e 2 98
e 2 102
e 2 119
e 2 128
e 2 152
e 2 156
e 2 159
e 2 162
e 2 167
e 2 207
e 2 211
e 2 225
e 2 234
e 2 247
e 2 249
e 3 4
e 3 13
e 3 15
e 3 17
e 3 21
e 3 22
e 3 25
e 3 44
e 3 56
e 3 70
e 3 76
e 3 99
e 3 104
e 3 114
e 3 133
e 3 144
e 3 145
e 3 159
e 3 174
e 3 191
e 3 195
e 3 197
e 3 200
e 3 210
e 3 230
e 3 233
e 3 236
e 3 239
e 3 248
e 4 7
e 4 9
e 4 12
e 4 27
e 4 32
e 4 51
e 4 52
e 4 62
e 4 64
e 4 70
e 4 76
e 4 81
e 4 91
e 4 98
e 4 102
e 4 106
e 4 119
e 4 134
e 4 135
e 4 149
e 4 179
e 4 181
e 4 190
e 4 203
e 4 206
e 4 209
e 4 219
e 4 224
e 4 230
e 4 231
e 5 6
e 5 15
e 5 33
e 5 53
e 5 58
e 5 64
e 5 83
e 5 88
e 5 108
e 5 134
e 5 152
e 5 153
e 5 159
e 5 162
e 5 175
e 5 184
e 5 187
e 5 222
e 5 228
e 5 232
e 5 237
e 5 245
e 6 23
e 6 25
e 6 30
e 6 38
e 6 49
e 6 56
e 6 64
e 6 82
e 6 92
e 6 95
e 6 97
e 6 108
e 6 113
e 6 120
e 6 122
e 6 125
e 6 126
e 6 136
e 6 137
e 6 145
e 6 150
e 6 174
e 6 177
e 6 181
e 6 194
e 6 198
e 6 204
e 6 205
e 6 212
e 6 224
e 6 228
e 6 230
e 6 242
e 6 246
e 6 248
e 7 10
e 7 20
e 7 34
e 7 50
e 7 57
e 7 63
e 7 66
e 7 67
e 7 72
e 7 77
e 7 96
e 7 109
e 7 110
e 7 111
e 7 113
e 7 118
e 7 136
e 7 138
e 7 146
e 7 152
e 7 155
e 7 159
e 7 160
e 7 166
e 7 194
e 7 202
e 7 214
e 7 220
e 7 233
e 7 235
e 7 241
e 7 249
e 8 14
e 8 17
e 8 21
e 8 34
e 8 40
e 8 53
e 8 56
e 8 63
e 8 88
e 8 123
e 8 124
e 8 144
e 8 156
e 8 180
e 8 215
e 8 227
e 8 233
e 8 237
e 9 12
e 9 17
e 9 35
e 9 37
e 9 71
e 9 72
e 9 77
e 9 78
e 9 86
e 9 101
e 9 115
e 9 132
e 9 135
e 9 143
e 9 146
e 9 147
e 9 150
e 9 180
e 9 181
e 9 185
e 9 197
e 9 201
e 9 223
e 9 236
e 9 248
e 10 12
e 10 16
e 10 18
e 10 25
e 10 40
e 10 55
e 10 70
e 10 78
e 10 81
e 10 104
e 10 128
e 10 146
e 10 147
e 10 201
e 10 206
e 10 220
e 10 229
e 10 239
e 11 12
e 11 17
e 11 22
e 11 24
e 11 38
e 11 45
e 11 59
e 11 61
e 11 73
e 11 100
e 11 111
e 11 117
e 11 122
e 11 126
e 11 147
e 11 156
e 11 179
e 11 205
e 11 214
e 11 216
e 11 225
e 11 238
e 11 246
e 12 17
e 12 22
e 12 26
e 12 32
e 12 37
e 12 41
e 12 66
e 12 67
e 12 89
e 12 94
e 12 119
e 12 142
e 12 158
e 12 164
e 12 186
e 12 191
e 12 199
e 12 203
e 12 229
e 12 230
e 12 231
e 12 235
e 12 240
e 13 30
e 13 46
e 13 57
e 13 60
e 13 78
e 13 86
e 13 93
e 13 98
e 13 120
e 13 150
e 13 156
e 13 169
e 13 186
e 13 219
e 13 220
e 13 227
e 14 16
e 14 25
e 14 47
e 14 83
e 14 100
e 14 102
e 14 129
e 14 131
e 14 136
e 14 139
e 14 141
e 14 174
e 14 175
e 14 184
e 14 185
e 14 246
e 15 20
e 15 21
e 15 74
e 15 77
e 15 102
e 15 105
e 15 111
e 15 113
e 15 114
e 15 123
e 15 129
e 15 133
e 15 138
e 15 156
e 15 161
e 15 178
e 15 180
e 15 184
e 15 188
e 15 203
e 15 208
e 15 230
e 15 233
e 15 235
e 15 238
e 15 244
e 15 247
e 16 19
e 16 27
e 16 53
e 16 56
e 16 60
e 16 63
e 16 70
e 16 74
e 16 91
e 16 107
e 16 126
e 16 129
e 16 132
e 16 135
e 16 170
e 16 174
e 16 175
e 16 192
e 16 204
e 17 20
e 17 29
e 17 34
e 17 43
e 17 70
e 17 75
e 17 100
e 17 107
e 17 115
e 17 120
e 17 121
e 17 126
e 17 141
e 17 153
e 17 156
e 17 169
e 17 172
e 17 210
e 17 222
e 17 231
e 17 233
e 18 37
e 18 41
e 18 47
e 18 52
e 18 56
e 18 82
e 18 92
e 18 136
e 18 157
e 18 160
e 18 161
e 18 168
e 18 171
e 18 172
e 18 175
e 18 181
e 18 202
e 18 203
e 18 218
e 19 22
e 19 28
e 19 56
e 19 63
e 19 69
e 19 83
e 19 87
e 19 99
e 19 106
e 19 107
e 19 108
e 19 119
e 19 132
e 19 150
e 19 172
e 19 185
e 19 197
e 19 221
e 19 225
e 19 227
e 19 232
e 19 236
e 20 34
e 20 35
e 20 49
e 20 62
e 20 76
e 20 78
e 20 96
e 20 105
e 20 108
e 20 110
e 20 128
e 20 131
e 20 149
e 20 160
e 20 180
e 20 190
e 20 194
e 20 199
e 20 201
e 20 221
e 20 227
e 20 228
e 21 37
e 21 39
e 21 49
e 21 77
e 21 80
e 21 83
e 21 93
e 21 103
e 21 105
e 21 109
e 21 130
e 21 133
e 21 145
e 21 146
e 21 150
e 21 152
e 21 157
e 21 173
e 21 193
e 21 209
e 21 221
e 21 242
e 21 250
e 22 23
e 22 32
e 22 36
e 22 45
e 22 47
e 22 54
e 22 57
e 22 74
e 22 79
e 22 81
e 22 83
e 22 102
e 22 107
e 22 110
e 22 111
e 22 113
e 22 117
e 22 134
e 22 145
e 22 152
e 22 166
e 22 175
e 22 185
e 22 232
e 22 239
e 22 245
e 22 248
e 23 49
e 23 59
e 23 60
e 23 110
e 23 116
e 23 117
e 23 119
e 23 137
e 23 138
e 23 146
e 23 162
e 23 169
e 23 232
e 24 31
e 24 35
e 24 44
e 24 50
e 24 51
e 24 52
e 24 55
e 24 67
e 24 69
e 24 78
e 24 79
e 24 102
e 24 114
e 24 115
e 24 121
e 24 122
e 24 123
e 24 124
e 24 131
e 24 137
e 24 141
e 24 150
e 24 159
e 24 167
e 24 172
e 24 174
e 24 176
e 24 177
e 24 183
e 24 208
e 24 213
e 24 218
e 24 220
e 24 232
e 24 233
e 25 26
e 25 28
e 25 37
e 25 71
e 25 78
e 25 97
e 25 100
e 25 103
e 25 115
e 25 122
e 25 129
e 25 140
e 25 164
e 25 166
e 25 177
e 25 178
e 25 187
e 25 191
e 25 202
e 25 204
e 25 237
e 25 247
e 26 27
e 26 37
e 26 41
e 26 44
e 26 61
e 26 76
e 26 79
e 26 103
e 26 111
e 26 125
e 26 134
e 26 135
e 26 155
e 26 161
e 26 162
e 26 164
e 26 166
e 26 184
e 26 211
e 26 214
e 26 221
e 26 238
e 27 49
e 27 53
e 27 58
e 27 69
e 27 71
e 27 83
e 27 98
e 27 125
e 27 128
e 27 132
e 27 138
e 27 140
e 27 141
e 27 147
e 27 151
e 27 167
e 27 169
e 27 206
e 27 208
e 27 220
e 27 221
e 27 222
e 27 227
e 27 230
e 28 35
e 28 45
e 28 65
e 28 95
e 28 99
e 28 104
e 28 141
e 28 148
e 28 155
e 28 168
e 28 177
e 28 182
e 28 196
e 28 197
e 28 214
e 28 234
e 28 247
e 29 31
e 29 33
e 29 34
e 29 35
e 29 36
e 29 51
e 29 58
e 29 85
e 29 97
e 29 111
e 29 117
e 29 128
e 29 144
e 29 146
e 29 164
e 29 181
e 29 186
e 29 194
e 29 195
e 29 198
e 29 200
e 29 209
e 29 218
e 29 223
e 29 231
e 30 41
e 30 55
e 30 58
e 30 61
e 30 64
e 30 70
e 30 84
e 30 87
e 30 95
e 30 108
e 30 117
e 30 125
e 30 147
e 30 153
e 30 158
e 30 171
e 30 189
e 30 210
e 30 217
e 30 219
e 30 229
e 30 232
e 30 239
e 30 246
e 31 83
e 31 84
e 31 92
e 31 118
e 31 119
e 31 120
e 31 128
e 31 129
e 31 136
e 31 137
e 31 140
e 31 146
e 31 165
e 31 170
e 31 177
e 31 179
e 31 187
e 31 200
e 31 209
e 31 213
e 31 233
e 31 235
e 31 238
e 31 245
e 31 250
e 32 36
e 32 47
e 32 52
e 32 55
e 32 56
e 32 69
e 32 83
e 32 90
e 32 91
e 32 95
e 32 112
e 32 125
e 32 150
e 32 164
e 32 167
e 32 170
e 32 179
e 32 197
e 32 200
e 32 201
e 32 229
e 32 234
e 32 235
e 32 246
e 33 35
e 33 44
e 33 49
e 33 51
e 33 72
e 33 82
e 33 92
e 33 101
e 33 103
e 33 104
e 33 130
e 33 138
e 33 144
e 33 147
e 33 158
e 33 159
e 33 169
e 33 174
e 33 177
e 33 187
e 33 204
e 33 205
e 33 209
e 33 210
e 33 214
e 33 222
e 33 223
e 33 233
e 33 236
e 33 240
e 33 242
e 33 247
e 34 37
e 34 39
e 34 41
e 34 77
e 34 80
e 34 81
e 34 85
e 34 89
e 34 102
e 34 112
e 34 114
e 34 126
e 34 134
e 34 141
e 34 148
e 34 156
e 34 171
e 34 181
e 34 197
e 34 207
e 34 215
e 34 218
e 34 221
e 34 224
e 34 228
e 34 233
e 34 236
e 34 244
e 35 36
e 35 41
e 35 55
e 35 61
e 35 67
e 35 81
e 35 93
e 35 107
e 35 109
e 35 110
e 35 137
e 35 139
e 35 166
e 35 167
e 35 171
e 35 186
e 35 191
e 35 194
e 35 202
e 35 210
e 35 217
e 35 226
e 35 227
e 36 52
e 36 55
e 36 58
e 36 60
e 36 74
e 36 90
e 36 152
e 36 169
e 36 194
e 36 207
e 36 231
e 36 232
e 36 239
e 37 40
e 37 64
e 37 72
e 37 78
e 37 81
e 37 89
e 37 96
e 37 106
e 37 110
e 37 148
e 37 149
e 37 151
e 37 154
e 37 160
e 37 168
e 37 169
e 37 171
e 37 176
e 37 183
e 37 197
e 37 221
e 37 225
e 37 232
e 37 233
e 37 236
e 38 39
e 38 54
e 38 89
e 38 90
e 38 131
e 38 154
e 38 170
e 38 173
e 38 174
e 38 176
e 38 177
e 38 196
e 38 212
e 38 225
e 38 245
e 39 41
e 39 61
e 39 94
e 39 104
e 39 105
e 39 124
e 39 135
e 39 145
e 39 167
e 39 178
e 39 198
e 39 220
e 39 235
e 39 248
e 40 45
e 40 55
e 40 61
e 40 62
e 40 95
e 40 99
e 40 100
e 40 122
e 40 126
e 40 128
e 40 133
e 40 150
e 40 167
e 40 172
e 40 189
e 40 199
e 40 200
e 40 203
e 40 205
e 40 210
e 40 223
e 40 226
e 40 231
e 40 235
e 40 243
e 41 45
e 41 60
e 41 61
e 41 64
e 41 67
e 41 76
e 41 81
e 41 82
e 41 88
e 41 91
e 41 105
e 41 111
e 41 125
e 41 131
e 41 135
e 41 140
e 41 181
e 41 197
e 41 201
e 41 213
e 41 221
e 41 229
e 41 230
e 41 236
e 41 238
e 41 242
e 42 48
e 42 54
e 42 58
e 42 60
e 42 62
e 42 70
e 42 89
e 42 103
e 42 104
e 42 124
e 42 138
e 42 143
e 42 146
e 42 166
e 42 178
e 42 190
e 42 203
e 42 208
e 42 228
e 42 238
e 42 239
e 42 248
e 42 249
e 43 60
e 43 63
e 43 70
e 43 80
e 43 83
e 43 86
e 43 91
e 43 93
e 43 105
e 43 110
e 43 115
e 43 121
e 43 133
e 43 137
e 43 138
e 43 143
e 43 144
e 43 147
e 43 163
e 43 183
e 43 203
e 43 206
e 43 209
e 43 226
e 43 245
e 43 249
e 44 51
e 44 67
e 44 72
e 44 85
e 44 89
e 44 102
e 44 118
e 44 133
e 44 150
e 44 157
e 44 161
e 44 163
e 44 188
e 44 192
e 44 193
e 44 207
e 44 210
e 44 211
e 44 216
e 44 228
e 44 246
e 45 51
e 45 60
e 45 107
e 45 113
e 45 125
e 45 128
e 45 129
e 45 142
e 45 147
e 45 149
e 45 150
e 45 156
e 45 165
e 45 166
e 45 171
e 45 175
e 45 179
e 45 192
e 45 208
e 45 212
e 45 214
e 45 217
e 45 219
e 45 220
e 45 227
e 45 231
e 45 233
e 46 48
e 46 49
e 46 57
e 46 58
e 46 86
e 46 92
e 46 94
e 46 99
e 46 104
e 46 105
e 46 109
e 46 119
e 46 128
e 46 130
e 46 143
e 46 147
e 46 162
e 46 178
e 46 184
e 46 185
e 46 190
e 46 192
e 46 226
e 46 233
e 46 236
e 46 245
e 47 60
e 47 69
e 47 71
e 47 73
e 47 82
e 47 91
e 47 96
e 47 104
e 47 114
e 47 119
e 47 121
e 47 123
e 47 133
e 47 141
e 47 144
e 47 151
e 47 165
e 47 193
e 47 201
e 47 225
e 47 229
e 47 239
e 47 244
e 48 54
e 48 60
e 48 92
e 48 103
e 48 109
e 48 125
e 48 130
e 48 135
e 48 140
e 48 147
e 48 157
e 48 158
e 48 159
e 48 175
e 48 192
e 49 54
e 49 75
e 49 82
e 49 84
e 49 93
e 49 122
e 49 123
e 49 131
e 49 133
e 49 166
e 49 168
e 49 169
e 49 171
e 49 173
e 49 188
e 49 191
e 49 195
e 49 201
e 49 210
e 49 217
e 49 220
e 49 223
e 49 239
e 50 58
e 50 67
e 50 69
e 50 104
e 50 115
e 50 117
e 50 124
e 50 126
e 50 134
e 50 149
e 50 151
e 50 168
e 50 180
e 50 191
e 50 194
e 50 202
e 50 204
e 50 211
e 50 212
e 51 53
e 51 57
e 51 60
e 51 61
e 51 71
e 51 82
e 51 98
e 51 108
e 51 132
e 51 140
e 51 150
e 51 157
e 51 170
e 51 176
e 51 177
e 51 184
e 51 187
e 51 189
e 51 199
e 51 203
e 51 206
e 51 217
e 51 249
e 52 60
e 52 61
e 52 68
e 52 77
e 52 103
e 52 105
e 52 138
e 52 144
e 52 153
e 52 180
e 52 192
e 52 194
e 52 230
e 52 234
e 53 56
e 53 58
e 53 66
e 53 77
e 53 115
e 53 117
e 53 128
e 53 133
e 53 137
e 53 143
e 53 152
e 53 165
e 53 178
e 53 181
e 53 185
e 53 191
e 53 214
e 53 222
e 53 233
e 54 71
e 54 97
e 54 107
e 54 165
e 54 169
e 54 177
e 54 210
e 54 211
e 54 215
e 54 222
e 54 226
e 54 236
e 54 238
e 54 249
e 54 250
e 55 57
e 55 61
e 55 70
e 55 79
e 55 84
e 55 88
e 55 117
e 55 122
e 55 126
e 55 128
e 55 141
e 55 151
e 55 156
e 55 208
e 55 210
e 55 214
e 55 236
e 56 67
e 56 68
e 56 69
e 56 71
e 56 73
e 56 96
e 56 106
e 56 123
e 56 137
e 56 139
e 56 143
e 56 146
e 56 148
e 56 151
e 56 152
e 56 163
e 56 198
e 56 203
e 56 208
e 56 215
e 56 224
e 56 230
e 56 238
e 56 247
e 57 63
e 57 92
e 57 104
e 57 126
e 57 163
e 57 164
e 57 183
e 57 191
e 57 198
e 57 202
e 57 207
e 57 224
e 57 230
e 57 232
e 57 233
e 57 241
e 58 59
e 58 77
e 58 78
e 58 79
e 58 95
e 58 108
e 58 127
e 58 150
e 58 162
e 58 164
e 58 179
e 58 196
e 58 203
e 58 219
e 58 222
e 58 224
e 58 228
e 58 232
e 58 250
e 59 67
e 59 71
e 59 81
e 59 101
e 59 105
e 59 115
e 59 118
e 59 132
e 59 137
e 59 138
e 59 144
e 59 145
e 59 170
e 59 186
e 59 191
e 59 214
e 59 224
e 59 226
e 59 229
e 59 231
e 59 244
e 59 246
e 60 72
e 60 111
e 60 131
e 60 148
e 60 151
e 60 155
e 60 174
e 60 183
e 60 209
e 60 228
e 60 238
e 61 78
e 61 90
e 61 96
e 61 97
e 61 104
e 61 109
e 61 121
e 61 129
e 61 130
e 61 145
e 61 148
e 61 150
e 61 158
e 61 161
e 61 166
e 61 170
e 61 186
e 61 189
e 61 192
e 61 195
e 61 213
e 61 221
e 61 229
e 61 236
e 61 247
e 62 69
e 62 70
e 62 74
e 62 78
e 62 85
e 62 105
e 62 115
e 62 120
e 62 160
e 62 169
e 62 171
e 62 173
e 62 183
e 62 184
e 62 187
e 62 207
e 62 211
e 62 213
e 62 224
e 62 231
e 62 238
e 62 241
e 62 250
e 63 101
e 63 126
e 63 130
e 63 131
e 63 145
e 63 147
e 63 148
e 63 150
e 63 189
e 63 192
e 63 200
e 63 203
e 63 206
e 63 207
e 63 212
e 63 214
e 63 218
e 63 222
e 63 229
e 63 232
e 63 234
e 63 243
e 63 246
e 63 247
e 63 250
e 64 75
e 64 102
e 64 106
e 64 120
e 64 125
e 64 129
e 64 144
e 64 146
e 64 149
e 64 150
e 64 173
e 64 175
e 64 187
e 64 196
e 64 197
e 64 212
e 64 223
e 64 229
e 64 233
e 64 234
e 64 248
e 65 69
e 65 75
e 65 86
e 65 87
e 65 100
e 65 106
e 65 107
e 65 119
e 65 128
e 65 132
e 65 177
e 65 194
e 65 214
e 65 239
e 65 243
e 66 75
e 66 84
e 66 101
e 66 107
e 66 109
e 66 121
e 66 130
e 66 144
e 66 151
e 66 153
e 66 167
e 66 173
e 66 199
e 66 208
e 66 216
e 66 217
e 66 234
e 66 237
e 67 84
e 67 88
e 67 112
e 67 116
e 67 123
e 67 124
e 67 142
e 67 152
e 67 155
e 67 159
e 67 169
e 67 176
e 67 183
e 67 203
e 67 212
e 67 216
e 67 218
e 67 225
e 68 76
e 68 85
e 68 138
e 68 165
e 68 178
e 68 193
e 68 231
e 68 233
e 68 241
e 68 244
e 68 248
e 69 81
e 69 86
e 69 90
e 69 106
e 69 120
e 69 132
e 69 133
e 69 139
e 69 159
e 69 161
e 69 173
e 69 184
e 69 201
e 69 206
e 69 224
e 69 232
e 69 235
e 69 237
e 70 74
e 70 114
e 70 116
e 70 118
e 70 121
e 70 126
e 70 146
e 70 147
e 70 151
e 70 162
e 70 180
e 70 192
e 70 220
e 70 227
e 70 228
e 70 232
e 71 79
e 71 82
e 71 88
e 71 90
e 71 94
e 71 97
e 71 129
e 71 136
e 71 143
e 71 155
e 71 156
e 71 158
e 71 178
e 71 203
e 71 205
e 71 206
e 71 207
e 71 208
e 71 210
e 71 217
e 71 218
e 71 228
e 71 248
e 72 78
e 72 84
e 72 91
e 72 93
e 72 95
e 72 100
e 72 102
e 72 107
e 72 108
e 72 125
e 72 128
e 72 139
e 72 157
e 72 160
e 72 170
e 72 185
e 72 186
e 72 196
e 72 202
e 72 210
e 72 227
e 73 75
e 73 79
e 73 93
e 73 108
e 73 109
e 73 115
e 73 118
e 73 119
e 73 125
e 73 130
e 73 138
e 73 161
e 73 189
e 73 190
e 73 193
e 73 216
e 73 245
e 74 125
e 74 129
e 74 146
e 74 174
e 74 178
e 74 188
e 74 189
e 74 194
e 74 195
e 74 196
e 74 198
e 74 211
e 74 223
e 74 228
e 74 231
e 74 246
e 74 250
e 75 76
e 75 87
e 75 98
e 75 109
e 75 110
e 75 120
e 75 121
e 75 133
e 75 138
e 75 145
e 75 185
e 75 224
e 75 228
e 75 229
e 76 82
e 76 89
e 76 120
e 76 121
e 76 131
e 76 162
e 76 167
e 76 169
e 76 170
e 76 181
e 76 191
e 76 209
e 76 218
e 76 221
e 76 222
e 76 244
e 77 96
e 77 114
e 77 129
e 77 138
e 77 146
e 77 155
e 77 189
e 77 196
e 77 199
e 77 205
e 77 216
e 77 234
e 77 238
e 77 240
e 78 82
e 78 88
e 78 93
e 78 95
e 78 102
e 78 103
e 78 105
e 78 133
e 78 138
e 78 168
e 78 183
e 78 195
e 78 197
e 78 207
e 78 208
e 78 213
e 78 238
e 78 247
e 78 249
e 79 80
e 79 82
e 79 85
e 79 86
e 79 93
e 79 97
e 79 110
e 79 112
e 79 118
e 79 120
e 79 136
e 79 139
e 79 146
e 79 175
e 79 176
e 79 178
e 79 184
e 79 186
e 79 217
e 79 229
e 79 235
e 80 83
e 80 101
e 80 103
e 80 134
e 80 141
e 80 208
e 80 224
e 80 225
e 80 248
e 81 89
e 81 109
e 81 122
e 81 132
e 81 165
e 81 183
e 81 185
e 81 193
e 81 212
e 81 225
e 82 99
e 82 105
e 82 106
e 82 139
e 82 148
e 82 170
e 82 182
e 82 197
e 82 203
e 82 212
e 82 219
e 82 222
e 82 243
e 82 244
e 83 94
e 83 108
e 83 122
e 83 148
e 83 162
e 83 168
e 83 172
e 83 184
e 83 217
e 83 218
e 83 224
e 83 235
e 84 118
e 84 127
e 84 135
e 84 153
e 84 163
e 84 169
e 84 170
e 84 180
e 84 216
e 84 218
e 84 219
e 84 228
e 84 243
e 85 86
e 85 112
e 85 120
e 85 166
e 85 177
e 85 178
e 85 180
e 85 183
e 85 185
e 85 187
e 85 204
e 85 210
e 85 222
e 85 229
e 85 237
e 85 242
e 85 247
e 86 106
e 86 107
e 86 110
e 86 111
e 86 115
e 86 126
e 86 155
e 86 156
e 86 157
e 86 166
e 86 170
e 86 200
e 86 207
e 86 210
e 86 226
e 86 236
e 86 246
e 87 93
e 87 98
e 87 103
e 87 133
e 87 141
e 87 142
e 87 146
e 87 148
e 87 154
e 87 157
e 87 166
e 87 191
e 87 212
e 87 214
e 87 221
e 87 223
e 87 234
e 87 239
e 87 240
e 87 244
e 88 113
e 88 148
e 88 152
e 88 154
e 88 160
e 88 174
e 88 181
e 88 184
e 88 217
e 88 221
e 88 227
e 89 99
e 89 106
e 89 108
e 89 124
e 89 125
e 89 134
e 89 137
e 89 152
e 89 166
e 89 178
e 89 179
e 89 195
e 89 203
e 89 217
e 89 226
e 89 233
e 90 93
e 90 99
e 90 105
e 90 117
e 90 123
e 90 133
e 90 137
e 90 146
e 90 150
e 90 171
e 90 178
e 90 180
e 90 184
e 90 200
e 90 205
e 90 234
e 90 235
e 90 237
e 90 247
e 91 108
e 91 118
e 91 122
e 91 128
e 91 140
e 91 144
e 91 148
e 91 159
e 91 171
e 91 178
e 91 179
e 91 187
e 91 203
e 91 213
e 91 221
e 91 231
e 91 237
e 91 241
e 91 244
e 92 118
e 92 119
e 92 140
e 92 144
e 92 160
e 92 177
e 92 178
e 92 211
e 92 212
e 92 218
e 92 231
e 92 246
e 92 247
e 93 102
e 93 124
e 93 130
e 93 132
e 93 135
e 93 136
e 93 137
e 93 145
e 93 148
e 93 152
e 93 163
e 93 167
e 93 169
e 93 176
e 93 183
e 93 186
e 93 199
e 93 204
e 93 245
e 94 107
e 94 122
e 94 129
e 94 140
e 94 151
e 94 155
e 94 156
e 94 178
e 94 222
e 94 241
e 95 99
e 95 132
e 95 136
e 95 139
e 95 143
e 95 153
e 95 156
e 95 163
e 95 176
e 95 179
e 95 187
e 95 200
e 95 202
e 95 227
e 95 233
e 95 235
e 95 238
e 95 244
e 96 109
e 96 122
e 96 147
e 96 153
e 96 164
e 96 173
e 96 175
e 96 184
e 96 194
e 96 206
e 96 225
e 96 229
e 96 237
e 96 244
e 97 110
e 97 118
e 97 128
e 97 156
e 97 157
e 97 172
e 97 176
e 97 182
e 97 190
e 97 214
e 97 218
e 97 223
e 97 236
e 98 101
e 98 106
e 98 144
e 98 151
e 98 153
e 98 154
e 98 166
e 98 188
e 98 191
e 98 198
e 98 203
e 98 230
e 99 103
e 99 105
e 99 128
e 99 129
e 99 137
e 99 144
e 99 157
e 99 162
e 99 173
e 99 190
e 99 191
e 99 193
e 99 225
e 99 227
e 99 232
e 99 245
e 100 106
e 100 119
e 100 122
e 100 180
e 100 190
e 100 193
e 100 204
e 100 208
e 100 213
e 100 216
e 101 111
e 101 113
e 101 117
e 101 138
e 101 148
e 101 149
e 101 159
e 101 170
e 101 186
e 101 190
e 101 210
e 101 220
e 101 222
e 101 223
e 101 228
e 101 237
e 101 250
e 102 104
e 102 111
e 102 150
e 102 164
e 102 184
e 102 187
e 102 207
e 102 218
e 102 224
e 102 240
e 102 247
e 103 107
e 103 116
e 103 134
e 103 167
e 103 171
e 103 177
e 103 185
e 103 188
e 103 198
e 103 202
e 103 226
e 103 230
e 103 249
e 104 108
e 104 140
e 104 148
e 104 167
e 104 174
e 104 177
e 104 179
e 104 187
e 104 198
e 104 250
e 105 116
e 105 120
e 105 176
e 105 179
e 105 193
e 105 208
e 105 224
e 105 228
e 105 240
e 105 242
e 105 246
e 106 113
e 106 140
e 106 144
e 106 156
e 106 157
e 106 168
e 106 176
e 106 179
e 106 181
e 106 190
e 106 196
e 106 205
e 106 213
e 106 216
e 106 232
e 107 109
e 107 121
e 107 125
e 107 131
e 107 139
e 107 147
e 107 158
e 107 160
e 107 167
e 107 186
e 107 244
e 108 112
e 108 150
e 108 183
e 108 192
e 108 195
e 108 228
e 108 237
e 109 120
e 109 135
e 109 140
e 109 142
e 109 146
e 109 170
e 109 181
e 109 202
e 109 203
e 109 218
e 109 219
e 109 231
e 109 234
e 110 116
e 110 118
e 110 120
e 110 144
e 110 151
e 110 173
e 110 186
e 110 190
e 110 192
e 110 194
e 110 206
e 110 210
e 110 212
e 110 213
e 110 223
e 111 117
e 111 121
e 111 134
e 111 142
e 111 146
e 111 150
e 111 152
e 111 154
e 111 172
e 111 179
e 111 180
e 111 195
e 111 216
e 111 221
e 111 223
e 111 225
e 112 119
e 112 141
e 112 174
e 112 189
e 112 194
e 112 200
e 112 217
e 112 219
e 112 231
e 112 247
e 113 114
e 113 115
e 113 118
e 113 131
e 113 143
e 113 148
e 113 152
e 113 168
e 113 173
e 113 178
e 113 182
e 113 193
e 113 196
e 113 208
e 113 215
e 113 231
e 113 240
e 113 244
e 114 137
e 114 138
e 114 141
e 114 150
e 114 157
e 114 170
e 114 171
e 114 183
e 114 189
e 114 203
e 114 205
e 114 206
e 114 221
e 114 222
e 114 239
e 115 119
e 115 144
e 115 149
e 115 163
e 115 168
e 115 169
e 115 194
e 115 198
e 115 210
e 116 120
e 116 128
e 116 133
e 116 135
e 116 146
e 116 156
e 116 178
e 116 180
e 116 194
e 117 122
e 117 123
e 117 130
e 117 139
e 117 140
e 117 149
e 117 162
e 117 167
e 117 175
e 117 179
e 117 180
e 117 195
e 117 212
e 117 214
e 117 229
e 117 230
e 117 233
e 118 120
e 118 131
e 118 137
e 118 156
e 118 159
e 118 169
e 118 170
e 118 180
e 118 182
e 118 189
e 118 223
e 118 229
e 118 234
e 118 236
e 118 244
e 119 124
e 119 128
e 119 139
e 119 151
e 119 179
e 119 181
e 119 185
e 119 202
e 119 210
e 119 219
e 119 225
e 119 234
e 119 236
e 120 125
e 120 148
e 120 156
e 120 165
e 120 179
e 120 199
e 120 205
e 120 214
e 120 222
e 120 231
e 120 233
e 120 250
e 121 126
e 121 131
e 121 134
e 121 139
e 121 164
e 121 194
e 121 197
e 121 216
e 121 218
e 121 221
e 121 222
e 121 239
e 121 244
e 122 123
e 122 146
e 122 165
e 122 166
e 122 175
e 122 183
e 122 188
e 122 197
e 122 198
e 122 200
e 122 204
e 122 244
e 123 139
e 123 155
e 123 161
e 123 163
e 123 169
e 123 182
e 123 187
e 123 198
e 123 205
e 123 211
e 123 217
e 123 223
e 123 232
e 123 242
e 123 249
e 124 134
e 124 139
e 124 148
e 124 150
e 124 152
e 124 153
e 124 155
e 124 177
e 124 179
e 124 181
e 124 187
e 124 205
e 124 207
e 124 219
e 124 226
e 124 228
e 124 238
e 125 130
e 125 134
e 125 144
e 125 146
e 125 148
e 125 163
e 125 166
e 125 174
e 125 223
e 125 228
e 125 230
e 125 250
e 126 135
e 126 145
e 126 151
e 126 164
e 126 167
e 126 175
e 126 197
e 126 204
e 126 212
e 126 217
e 126 225
e 126 231
e 126 241
e 126 250
e 127 128
e 127 131
e 127 169
e 127 172
e 127 202
e 127 205
e 127 218
e 127 220
e 127 229
e 127 234
e 127 239
e 127 241
e 127 242
e 127 243
e 127 247
e 128 142
e 128 143
e 128 154
e 128 158
e 128 162
e 128 163
e 128 165
e 128 182
e 128 190
e 128 209
e 128 223
e 128 227
e 128 230
e 128 244
e 129 150
e 129 167
e 129 169
e 129 176
e 129 180
e 129 184
e 129 185
e 129 191
e 129 192
e 129 195
e 129 196
e 129 205
e 129 208
e 129 213
e 129 228
e 129 233
e 129 235
e 129 237
e 129 239
e 129 249
e 130 137
e 130 183
e 130 184
e 130 191
e 130 200
e 130 201
e 130 214
e 130 215
e 130 246
e 131 132
e 131 135
e 131 136
e 131 153
e 131 157
e 131 175
e 131 177
e 131 182
e 131 184
e 131 189
e 131 209
e 131 212
e 131 218
e 131 219
e 131 243
e 131 249
e 132 154
e 132 165
e 132 182
e 132 184
e 132 188
e 132 203
e 132 217
e 132 225
e 132 226
e 132 235
e 133 134
e 133 139
e 133 186
e 133 190
e 133 196
e 133 198
e 133 199
e 133 200
e 133 202
e 133 211
e 133 239
e 133 240
e 133 241
e 134 136
e 134 138
e 134 142
e 134 154
e 134 164
e 134 181
e 134 216
e 134 228
e 134 230
e 134 247
e 135 136
e 135 159
e 135 160
e 135 175
e 135 198
e 135 202
e 135 204
e 135 213
e 135 225
e 135 233
e 135 240
e 136 156
e 136 163
e 136 166
e 136 179
e 136 180
e 136 182
e 136 188
e 136 211
e 136 236
e 137 144
e 137 147
e 137 153
e 137 177
e 137 179
e 137 184
e 137 188
e 137 199
e 137 206
e 137 225
e 137 235
e 137 244
e 138 143
e 138 148
e 138 152
e 138 160
e 138 191
e 138 197
e 138 206
e 138 210
e 138 212
e 138 218
e 138 220
e 138 230
e 138 236
e 138 242
e 139 151
e 139 153
e 139 162
e 139 169
e 139 188
e 139 194
e 139 202
e 139 213
e 139 228
e 139 235
e 139 237
e 139 240
e 139 244
e 139 247
e 140 145
e 140 148
e 140 154
e 140 159
e 140 174
e 140 176
e 140 191
e 140 199
e 140 225
e 140 228
e 140 230
e 140 243
e 141 149
e 141 156
e 141 162
e 141 163
e 141 164
e 141 168
e 141 191
e 141 207
e 141 219
e 141 224
e 141 227
e 141 229
e 142 144
e 142 149
e 142 151
e 142 152
e 142 174
e 142 186
e 142 196
e 142 205
e 142 208
e 142 218
e 142 226
e 142 233
e 142 240
e 143 144
e 143 147
e 143 150
e 143 155
e 143 157
e 143 158
e 143 162
e 143 172
e 143 173
e 143 197
e 143 211
e 143 223
e 143 225
e 144 184
e 144 185
e 144 206
e 144 217
e 144 224
e 145 159
e 145 173
e 145 191
e 145 206
e 145 210
e 145 248
e 146 165
e 146 168
e 146 174
e 146 177
e 146 183
e 146 186
e 146 189
e 146 195
e 146 203
e 146 208
e 146 224
e 146 225
e 146 229
e 146 230
e 146 231
e 146 243
e 147 162
e 147 172
e 147 177
e 147 188
e 147 191
e 147 206
e 147 215
e 147 216
e 147 230
e 147 245
e 148 155
e 148 158
e 148 163
e 148 178
e 148 179
e 148 181
e 148 183
e 148 194
e 148 195
e 148 196
e 148 202
e 148 206
e 148 207
e 148 240
e 149 152
e 149 168
e 149 170
e 149 181
e 149 192
e 149 198
e 149 201
e 149 204
e 149 207
e 149 208
e 149 218
e 149 230
e 149 231
e 149 239
e 150 163
e 150 175
e 150 203
e 150 218
e 150 220
e 150 227
e 150 229
e 150 232
e 150 236
e 150 247
e 151 170
e 151 171
e 151 175
e 151 197
e 151 209
e 151 219
e 151 248
e 151 250
e 152 153
e 152 163
e 152 164
e 152 172
e 152 179
e 152 184
e 152 192
e 152 195
e 152 236
e 152 248
e 153 160
e 153 179
e 153 181
e 153 187
e 153 192
e 153 205
e 153 212
e 153 213
e 153 227
e 153 235
e 153 237
e 153 241
e 153 244
e 154 159
e 154 175
e 154 179
e 154 185
e 154 192
e 154 194
e 154 246
e 155 163
e 155 173
e 155 205
e 155 207
e 155 208
e 155 217
e 155 234
e 155 242
e 156 163
e 156 186
e 156 217
e 156 229
e 156 233
e 156 240
e 156 242
e 157 162
e 157 172
e 157 181
e 157 190
e 157 191
e 157 204
e 157 216
e 157 218
e 158 168
e 158 194
e 158 198
e 158 200
e 158 201
e 158 203
e 158 206
e 158 233
e 158 250
e 159 164
e 159 220
e 159 246
e 160 172
e 160 179
e 160 190
e 160 196
e 160 246
e 161 174
e 161 177
e 161 184
e 161 195
e 161 207
e 161 220
e 161 233
e 161 243
e 162 165
e 162 167
e 162 183
e 162 194
e 162 219
e 162 233
e 162 235
e 163 204
e 163 218
e 163 220
e 163 225
e 163 232
e 163 242
e 163 248
e 164 166
e 164 169
e 164 173
e 164 193
e 164 202
e 164 213
e 164 216
e 164 220
e 164 222
e 164 226
e 164 228
e 164 229
e 164 247
e 164 250
e 165 174
e 165 185
e 165 188
e 165 190
e 165 195
e 165 206
e 165 212
e 165 229
e 165 233
e 165 244
e 166 171
e 166 192
e 166 195
e 166 213
e 166 220
e 166 226
e 166 232
e 166 239
e 166 243
e 167 173
e 167 174
e 167 180
e 167 181
e 167 218
e 167 238
e 167 243
e 168 178
e 168 191
e 168 194
e 168 198
e 168 223
e 168 230
e 169 175
e 169 179
e 169 180
e 169 215
e 169 220
e 169 243
e 169 250
e 170 173
e 170 205
e 170 209
e 170 211
e 170 213
e 170 216
e 170 228
e 170 240
e 170 247
e 171 172
e 171 185
e 171 189
e 171 206
e 171 217
e 171 224
e 171 227
e 171 239
e 171 248
e 172 181
e 172 185
e 172 186
e 172 213
e 172 225
e 172 242
e 172 246
e 172 248
e 173 190
e 173 242
e 173 247
e 174 176
e 174 177
e 174 179
e 174 208
e 174 213
e 174 237
e 174 245
e 175 189
e 175 228
e 175 243
e 175 245
e 175 246
e 176 186
e 176 198
e 176 204
e 176 205
e 176 241
e 176 245
e 176 250
e 177 187
e 177 192
e 177 198
e 177 231
e 177 242
e 178 180
e 178 190
e 178 193
e 178 199
e 178 206
e 178 218
e 178 231
e 178 238
e 179 192
e 179 194
e 179 201
e 179 207
e 179 210
e 179 231
e 179 239
e 179 248
e 179 249
e 179 250
e 180 196
e 180 204
e 180 209
e 180 212
e 180 216
e 180 238
e 180 246
e 181 193
e 181 201
e 181 208
e 181 209
e 181 210
e 181 212
e 181 217
e 181 230
e 181 236
e 181 239
e 181 240
e 182 188
e 182 205
e 182 235
e 182 240
e 182 245
e 183 195
e 183 202
e 183 205
e 183 226
e 183 236
e 183 243
e 183 245
e 183 247
e 184 201
e 184 203
e 184 217
e 184 226
e 185 186
e 185 196
e 185 198
e 185 216
e 185 217
e 185 219
e 185 238
e 185 247
e 186 207
e 186 221
e 186 226
e 186 246
e 187 199
e 187 205
e 188 191
e 188 194
e 188 207
e 188 209
e 188 216
e 188 218
e 188 222
e 188 247
e 189 192
e 189 237
e 189 238
e 189 248
e 190 240
e 190 242
e 191 198
e 191 210
e 191 216
e 191 242
e 191 243
e 192 195
e 192 213
e 192 228
e 192 233
e 192 244
e 193 205
e 193 219
e 193 230
e 193 240
e 193 241
e 194 219
e 194 228
e 195 221
e 195 228
e 195 239
e 195 244
e 196 198
e 196 205
e 196 243
e 196 244
e 196 250
e 197 200
e 197 208
e 197 243
e 198 209
e 198 215
e 198 221
e 198 243
e 199 208
e 199 209
e 199 221
e 199 224
e 199 235
e 199 236
e 199 238
e 199 246
e 199 247
e 199 250
e 200 203
e 200 205
e 200 224
e 200 227
e 200 234
e 200 235
e 200 240
e 201 205
e 201 222
e 201 237
e 202 213
e 202 238
e 202 243
e 202 247
e 203 206
e 203 212
e 203 223
e 203 230
e 204 235
e 204 238
e 204 250
e 205 211
e 205 215
e 205 222
e 205 228
e 205 239
e 205 241
e 205 244
e 206 216
e 206 219
e 206 220
e 206 228
e 206 229
e 206 234
e 206 238
e 206 239
e 206 246
e 207 208
e 207 220
e 207 235
e 207 250
e 208 217
e 208 239
e 208 249
e 209 215
e 209 218
e 209 225
e 209 226
e 209 247
e 210 220
e 210 224
e 210 234
e 210 243
e 210 247
e 211 215
e 211 216
e 211 236
e 211 241
e 212 225
e 212 234
e 212 236
e 212 239
e 212 246
e 212 247
e 213 217
e 213 220
e 214 222
e 214 229
e 214 234
e 214 235
e 214 246
e 215 224
e 215 237
e 215 249
e 217 222
e 217 231
e 217 239
e 217 247
e 218 222
e 218 224
e 218 225
e 218 234
e 218 240
e 219 236
e 219 244
e 220 229
e 220 239
e 220 246
e 220 249
e 221 232
e 221 234
e 221 238
e 222 231
e 222 245
e 223 234
e 223 248
e 224 228
e 224 236
e 224 243
e 225 235
e 225 238
e 225 250
e 226 248
e 226 249
e 227 236
e 230 243
e 230 249
e 231 239
e 231 241
e 232 234
e 232 235
e 232 241
e 232 250
e 233 246
e 234 235
e 235 240
e 235 246
e 236 242
e 236 243
e 236 247
e 237 245
e 237 250
e 238 245
e 240 243
e 240 247
